; benchmark generated from python API
(set-info :status unknown)
(declare-fun S_4 () Real)
(declare-fun C () Real)
(declare-fun A_1 () Real)
(declare-fun L_1 () Real)
(declare-fun L_2 () Real)
(declare-fun S_3 () Real)
(declare-fun A_2 () Real)
(declare-fun A_3 () Real)
(declare-fun L_3 () Real)
(declare-fun S_5 () Real)
(declare-fun S_1 () Real)
(declare-fun L_0 () Real)
(declare-fun A_0 () Real)
(declare-fun L_4 () Real)
(declare-fun A_4 () Real)
(declare-fun S_0 () Real)
(declare-fun A_5 () Real)
(declare-fun S_2 () Real)
(assert
 (let (($x39 (>= L_0 0.0)))
 (let (($x676 (>= C 5.0)))
 (let (($x86 (= L_4 L_3)))
 (let (($x29779 (or $x86 (<= (+ S_5 (* (- 1.0) A_4) L_4 (* (- 1.0) C)) (- 5.0)))))
 (let ((?x292 (* (- 1.0) L_2)))
 (let ((?x440 (* (- 1.0) A_3)))
 (let ((?x1908 (+ C ?x440 A_2 ?x292 L_3)))
 (let (($x26803 (<= 0.0 ?x1908)))
 (let ((?x435 (* (- 1.0) A_1)))
 (let ((?x1961 (+ C ?x435 S_0 L_1)))
 (let (($x25812 (<= 0.0 ?x1961)))
 (let (($x3715 (<= (+ (* (- 1.0) L_3) A_3 (* (- 1.0) S_4)) 0.0)))
 (let (($x1923 (<= (+ (* 3.0 C) (* (- 1.0) S_4) S_0) 0.0)))
 (let ((?x1174 (* 3.0 C)))
 (let ((?x275 (* (- 1.0) L_1)))
 (let ((?x443 (* (- 1.0) A_4)))
 (let ((?x3447 (+ ?x443 L_4 ?x275 A_1 ?x1174)))
 (let (($x27554 (<= (+ ?x443 L_4 A_2 ?x292 (* 2.0 C)) (- 5.0))))
 (let ((?x309 (* (- 1.0) L_3)))
 (let ((?x3734 (+ ?x443 L_4 ?x309 A_3 C)))
 (let (($x26863 (<= ?x3734 (- 5.0))))
 (let (($x29768 (or $x86 $x26863 $x27554 (<= (+ ?x443 L_4 (* 4.0 C) S_0) (- 5.0)) (<= ?x3447 (- 5.0)))))
 (let ((?x437 (* (- 1.0) A_2)))
 (let ((?x3443 (+ ?x275 A_1 C ?x437 L_2)))
 (let (($x26696 (<= 0.0 ?x3443)))
 (let (($x25879 (not $x26696)))
 (let (($x2621 (<= (+ C A_2 (* (- 1.0) S_4) ?x292) 0.0)))
 (let (($x76 (= L_3 L_2)))
 (let (($x26073 (not $x25812)))
 (let (($x53859 (or $x76 $x26073 $x26696 (<= (+ ?x275 A_1 (* 2.0 C) ?x440 L_3) (- 5.0)))))
 (let (($x26607 (<= ?x1908 (- 5.0))))
 (let (($x29348 (or (<= (+ ?x275 A_1 (* 2.0 C) (* (- 1.0) S_4)) 0.0) $x3715 $x26073 $x26696)))
 (let (($x3729 (<= (+ A_4 (* (- 1.0) L_4) L_3 ?x440 C ?x437 S_0 L_2) 0.0)))
 (let (($x66 (= L_2 L_1)))
 (let ((?x1154 (* (- 2.0) C)))
 (let ((?x326 (* (- 1.0) L_4)))
 (let ((?x2420 (+ A_4 ?x326 ?x1154 ?x437 L_2)))
 (let (($x26349 (<= 0.0 ?x2420)))
 (let (($x30389 (or $x86 $x26349 (<= (+ ?x443 L_4 ?x309 A_3 A_2 (* (- 1.0) S_2) ?x292) 0.0))))
 (let (($x56 (= L_1 L_0)))
 (let (($x18187 (or (<= (+ (* (- 1.0) S_4) (* 2.0 C) S_1) 0.0) $x2621 $x3715)))
 (let (($x8810 (<= (+ A_4 ?x326 ?x437 ?x435 L_2 (* (- 1.0) C) S_0 L_1) 0.0)))
 (let (($x25287 (<= 0.0 (+ A_4 ?x326 (* (- 3.0) C) ?x435 L_1))))
 (let (($x10160 (<= (+ ?x443 L_4 ?x309 A_3 A_1 (* (- 1.0) A_0) ?x275 L_0) 0.0)))
 (let (($x8906 (<= (+ ?x443 L_4 A_2 A_1 (* (- 1.0) A_0) ?x292 C ?x275 L_0) 0.0)))
 (let (($x10154 (<= (+ ?x443 L_4 ?x309 A_3 C A_1 (* (- 1.0) S_2) ?x275) 0.0)))
 (let ((?x408 (* (- 1.0) S_2)))
 (let ((?x1142 (* 2.0 C)))
 (let (($x31597 (or $x86 (<= (+ ?x443 L_4 A_2 A_1 ?x292 ?x1142 ?x408 ?x275) 0.0) $x10154 $x25287)))
 (let ((?x1291 (* (- 1.0) S_0)))
 (let ((?x350 (* (- 1.0) C)))
 (let (($x30947 (or $x86 (<= (+ ?x443 L_4 A_2 A_1 ?x292 ?x1291 ?x275) 0.0) (<= (+ ?x443 L_4 ?x309 A_3 ?x350 A_1 ?x1291 ?x275) 0.0) $x25287)))
 (let (($x8747 (<= (+ ?x443 L_4 A_2 A_1 ?x292 C (* (- 1.0) S_1) ?x275) 0.0)))
 (let (($x36785 (or $x86 $x8747 (<= (+ ?x443 L_4 ?x309 A_3 A_1 (* (- 1.0) S_1) ?x275) 0.0) $x25287)))
 (let (($x52669 (or $x56 (<= (+ A_4 ?x326 ?x437 ?x435 L_2 ?x1154 S_1 L_1) 0.0))))
 (let (($x10153 (<= (+ ?x443 L_4 ?x309 A_3 ?x1142 A_1 (* (- 1.0) S_3) ?x275) 0.0)))
 (let (($x802 (<= (+ A_2 (* (- 1.0) S_3) ?x292) 0.0)))
 (let (($x36474 (or $x56 (<= (+ A_4 ?x326 L_3 ?x440 ?x350 ?x435 S_1 L_1) 0.0))))
 (let (($x30651 (or $x56 (<= (+ A_4 ?x326 L_3 ?x440 ?x1154 ?x435 S_2 L_1) 0.0))))
 (let ((?x3445 (+ ?x275 A_1 ?x1142 ?x440 L_3)))
 (let (($x26805 (<= 0.0 ?x3445)))
 (let (($x51974 (or $x86 (= (+ ?x443 L_4 ?x309 A_3 A_2 ?x435 L_1 ?x292) 0.0) $x26349 (not (<= 0.0 (+ ?x443 L_4 ?x309 A_3 A_2 ?x435 L_1 ?x292))))))
 (let (($x3727 (<= (+ ?x443 L_4 ?x309 A_3 ?x350 A_2 (* (- 1.0) S_1) ?x292) 0.0)))
 (let (($x3743 (<= (+ ?x443 L_4 ?x309 A_3 ?x350 A_2 (* (- 1.0) A_0) ?x292 L_0) 0.0)))
 (let (($x53703 (or $x86 $x26349 (<= (+ ?x443 L_4 ?x309 A_3 ?x1154 A_2 ?x1291 ?x292) 0.0))))
 (let ((?x3732 (+ ?x443 L_4 ?x309 A_3 A_2 ?x435 L_1 ?x292)))
 (let (($x26338 (<= 0.0 ?x3732)))
 (let (($x30663 (or $x66 (<= (+ A_4 ?x326 L_3 ?x440 ?x350 ?x437 S_2 L_2) 0.0))))
 (let (($x3719 (<= (+ ?x443 L_4 ?x309 A_3 C A_2 (* (- 1.0) S_3) ?x292) 0.0)))
 (let (($x25950 (not $x26805)))
 (let (($x3958 (<= (+ ?x440 A_2 A_1 ?x292 (* (- 1.0) S_1) ?x275 L_3) 0.0)))
 (let (($x1312 (= (+ ?x440 A_1 ?x1142 ?x275 L_3) 0.0)))
 (let (($x53857 (or $x76 (not (<= (+ ?x1154 A_2 ?x292 (* (- 1.0) S_1)) 0.0)) $x3958)))
 (let (($x52490 (or $x56 (<= (+ ?x350 A_3 ?x437 ?x435 L_2 S_1 L_1 ?x309) 0.0))))
 (let (($x52829 (or $x76 (not (<= (+ ?x350 A_2 ?x292 ?x408) 0.0)) (<= (+ C ?x440 A_2 A_1 ?x292 ?x408 ?x275 L_3) 0.0))))
 (let ((?x1457 (+ ?x437 C S_1 L_2)))
 (let (($x26562 (<= 0.0 ?x1457)))
 (let (($x52967 (or $x76 (not (<= (+ (* (- 3.0) C) A_2 ?x292 ?x1291) 0.0)) (<= (+ ?x350 ?x440 A_2 A_1 ?x292 ?x1291 ?x275 L_3) 0.0))))
 (let (($x4010 (<= (+ ?x440 A_2 A_1 (* (- 1.0) A_0) ?x292 ?x275 L_3 L_0) 0.0)))
 (let (($x582 (not (<= 0.0 (+ ?x275 L_0)))))
 (let (($x26813 (or $x66 $x582 (<= (+ ?x437 A_1 C L_2 (* (- 1.0) L_0)) 0.0))))
 (let (($x552 (<= 0.0 (+ ?x440 C S_2 L_3))))
 (let (($x128 (>= S_1 S_0)))
 (let (($x131 (>= S_2 S_1)))
 (let (($x134 (>= S_3 S_2)))
 (let (($x137 (>= S_4 S_3)))
 (let (($x142 (>= A_1 A_0)))
 (let (($x143 (>= A_2 A_1)))
 (let (($x144 (>= A_3 A_2)))
 (let (($x145 (>= A_4 A_3)))
 (and (<= (+ A_4 ?x326) S_5) $x145 $x144 $x143 $x142 $x137 $x134 $x131 $x128 (or $x582 $x56) (or $x56 $x66 (= (+ ?x437 A_1 C ?x275 L_2) 0.0)) (or $x66 (not (<= 0.0 (+ L_1 ?x292)))) (or $x552 (<= (+ (* (- 1.0) S_4) C S_2) 0.0)) (or $x66 (<= (+ ?x437 S_2 L_2) (- 5.0))) (or $x66 $x76 (= ?x1908 0.0)) (<= (+ S_5 ?x1154 (* (- 1.0) S_4)) 0.0) (or $x56 (<= 0.0 (+ ?x437 A_1 C)) (not $x66)) (<= (+ S_5 (* (- 5.0) C) (* (- 1.0) A_0) L_0) 0.0) (or $x56 (<= (+ ?x435 ?x350 S_2 L_1) (- 5.0))) (or $x76 (not (<= 0.0 (+ L_2 ?x309)))) (or $x76 (not $x66) (<= (+ C ?x440 A_2 ?x275 L_3) 0.0)) $x26813 (or $x76 $x1312 (<= (+ ?x350 A_2 ?x292 ?x408) 0.0) $x25950) (or $x76 $x1312 (<= (+ (* (- 3.0) C) A_2 ?x292 ?x1291) 0.0) $x25950) (or $x76 $x1312 $x4010 $x25950) (or $x76 $x1312 $x2621 $x25950) (or $x76 $x1312 $x25950 $x26607) $x52967 (or $x56 (<= (+ ?x435 S_1 L_1) (- 5.0))) (<= (+ (* (- 4.0) C) S_3 ?x1291) 0.0) (<= (+ ?x1154 S_3 ?x408) 0.0) (or $x26562 (<= (+ (* (- 1.0) S_3) C S_1) 0.0)) (or $x86 (not (<= 0.0 (+ ?x326 L_3)))) (or $x76 (<= (+ ?x350 ?x440 S_4 L_3) (- 5.0))) $x52829 (or $x86 (<= 0.0 (+ A_4 ?x326 ?x350 ?x440 L_3))) (or $x76 (<= 0.0 ?x3734)) (or $x56 (<= ?x1961 (- 5.0))) (or $x56 $x26805) (or $x76 $x802 $x1312 $x25950) $x52490 (or $x802 (not $x26562)) (or $x25812 (<= (+ C ?x408 S_0) 0.0)) (or (<= (+ ?x275 A_1 ?x408) 0.0) $x26073) (or $x66 $x26803) (<= (+ ?x437 L_2 S_2) 0.0) (or $x56 (<= (+ A_3 ?x437 ?x435 L_2 S_0 L_1 ?x309) 0.0)) (or $x25812 $x802 (<= (+ ?x1142 (* (- 1.0) S_3) S_0) 0.0)) (<= (+ (* (- 1.0) A_0) ?x1154 S_2 L_0) 0.0) (<= (+ (* (- 3.0) C) S_2 ?x1291) 0.0) $x53857 (or $x76 $x1312 $x3958 $x25950) (or $x56 (<= 0.0 ?x3447)) (<= (+ S_5 (* (- 3.0) C) (* (- 1.0) S_3)) 0.0) (<= (+ S_5 (* (- 6.0) C) ?x1291) 0.0) (or $x56 (<= (+ S_5 (* (- 4.0) C) ?x435 L_1) (- 5.0))) (or $x86 $x26349 $x26863) (or $x86 $x3715 $x26349) (or $x76 (<= (+ ?x440 S_3 L_3) (- 5.0))) (or $x86 $x26349 $x3719) (or (not $x552) $x3715) $x30663 (or $x66 $x26073 $x26338) $x53703 (or $x86 $x26349 $x3743) (or $x86 $x26349 $x3727) $x51974 (or $x76 (<= (+ C ?x440 S_2 L_3) (- 5.0))) (<= (+ (* (- 3.0) C) S_3 (* (- 1.0) S_1)) 0.0) (<= (+ ?x1154 S_2 (* (- 1.0) S_1)) 0.0) (<= (+ ?x1154 S_4 (* (- 1.0) S_3)) 0.0) (<= (+ L_3 ?x440 ?x350 S_4) 0.0) (<= (+ S_5 L_3 ?x440 ?x1154) 0.0) (or $x66 (<= (+ ?x350 ?x437 S_3 L_2) (- 5.0))) (or $x66 (<= ?x2420 0.0)) (or $x66 (<= (+ ?x437 ?x1154 S_4 L_2) (- 5.0))) (or $x66 (<= (+ S_5 (* (- 3.0) C) ?x437 L_2) (- 5.0))) (or $x66 (<= (+ ?x1142 ?x437 S_0 L_2) (- 5.0)) (<= ?x3443 (- 5.0))) (<= (+ ?x1154 S_1 ?x1291) 0.0) (or $x802 (<= (+ ?x275 A_1 C (* (- 1.0) S_3)) 0.0) $x26073) (<= (+ (* (- 3.0) C) (* (- 1.0) A_0) S_3 L_0) 0.0) (or (not (<= 0.0 (+ ?x440 S_3 L_3))) $x26805) (<= (+ (* (- 4.0) C) (* (- 1.0) A_0) S_4 L_0) 0.0) (<= (+ (* (- 5.0) C) S_4 ?x1291) 0.0) $x30651 $x36474 (or $x56 (<= (+ A_4 ?x326 L_3 ?x440 ?x435 S_0 L_1) 0.0)) (or $x86 $x802 $x10153 $x25287) (or $x86 $x2621 $x3715 $x25287) (or $x86 $x25287 $x26863 $x27554) $x52669 $x36785 $x30947 $x31597 (or $x86 $x8906 $x10160 $x25287) (<= (+ S_5 L_1 ?x435 (* (- 4.0) C)) 0.0) (or $x56 $x8810) (<= (+ ?x437 L_2 ?x1154 S_4) 0.0) (or $x56 (<= (+ ?x1154 ?x435 S_3 L_1) (- 5.0))) $x18187 (<= (+ S_5 (* (- 4.0) C) ?x408) 0.0) (<= (+ S_5 (* (- 5.0) C) (* (- 1.0) S_1)) 0.0) (<= (+ (* (- 4.0) C) S_4 (* (- 1.0) S_1)) 0.0) (or $x56 (<= (+ (* (- 3.0) C) ?x435 S_4 L_1) (- 5.0))) (<= (+ (* (- 3.0) C) S_4 ?x408) 0.0) (<= (+ ?x435 ?x350 S_2 L_1) 0.0) (or $x66 (<= (+ A_4 ?x326 L_3 ?x440 ?x437 S_1 L_2) 0.0)) $x30389 (or $x66 (<= ?x1457 (- 5.0))) (or $x66 $x3729 $x25812) (or $x86 (<= (+ ?x443 L_4 S_4) (- 5.0))) $x29348 (or (<= 0.0 (+ ?x1174 ?x440 S_0 L_3)) $x1923 $x2621 $x25812) (or $x76 $x26607 (<= (+ ?x1142 ?x440 S_1 L_3) (- 5.0))) (or $x76 $x25812 (<= (+ ?x1174 ?x440 S_0 L_3) (- 5.0)) $x26607) (or $x2621 $x3715 $x25879 $x26073) $x53859 (or $x76 $x25879 $x26073 $x26607) (or $x76 (<= (+ S_5 ?x1154 ?x440 L_3) (- 5.0))) (or $x86 (<= (+ ?x443 L_4 C S_3) (- 5.0))) (or (<= (+ ?x437 ?x1142 S_0 L_2) 0.0) $x2621 $x3715 $x25879) (or $x86 $x26863 $x27554 (<= (+ ?x443 L_4 ?x1174 S_1) (- 5.0))) (or $x86 $x26863 (<= (+ ?x443 L_4 ?x1142 S_2) (- 5.0))) (<= (+ L_1 ?x435 ?x1154 S_3) 0.0) $x29768 (or $x1923 $x3715 $x25812 (not $x26803)) $x29779 $x676 $x39 (not (>= (+ S_5 L_4 (* (- 1.0) A_5)) 0.0)) (<= (+ (* (- 1.0) A_0) S_0 L_0) 0.0) (<= (+ ?x443 L_4 S_4) 0.0) (<= (+ S_5 ?x443 L_4 ?x350) 0.0) (<= (+ (* (- 1.0) A_0) ?x350 S_1 L_0) 0.0) (<= (+ L_1 ?x435 S_1) 0.0) (<= (+ S_5 ?x437 L_2 (* (- 3.0) C)) 0.0) (<= (+ L_3 ?x440 S_3) 0.0) (<= (+ ?x350 ?x437 S_3 L_2) 0.0) (<= (+ L_1 ?x435 (* (- 3.0) C) S_4) 0.0)))))))))))))))))))))))))))))))))))))))))))))))))))))))))))))))))))))))))))))))))))))))))))))
(check-sat)
